
Gurobi 5.6.3 (linux64) logging started Wed Jul 22 11:45:01 2015


Gurobi 5.6.3 (linux64) logging started Wed Jul 22 12:55:11 2015


Gurobi 5.6.3 (linux64) logging started Wed Jul 22 12:55:51 2015


Gurobi 5.6.3 (linux64) logging started Wed Jul 22 12:56:15 2015


Gurobi 5.6.3 (linux64) logging started Wed Jul 22 12:56:35 2015


Gurobi 5.6.3 (linux64) logging started Wed Jul 22 12:56:53 2015


Gurobi 5.6.3 (linux64) logging started Wed Jul 22 13:22:06 2015


Gurobi 5.6.3 (linux64) logging started Wed Aug  5 12:11:48 2015


Gurobi 5.6.3 (linux64) logging started Wed Aug  5 12:15:09 2015


Gurobi 5.6.3 (linux64) logging started Wed Aug  5 12:17:06 2015


Gurobi 5.6.3 (linux64) logging started Wed Aug  5 12:20:37 2015


Gurobi 5.6.3 (linux64) logging started Wed Aug  5 12:29:58 2015


Gurobi 5.6.3 (linux64) logging started Wed Aug  5 13:17:00 2015


Gurobi 5.6.3 (linux64) logging started Wed Aug  5 13:23:20 2015


Gurobi 5.6.3 (linux64) logging started Wed Aug  5 15:18:25 2015


Gurobi 5.6.3 (linux64) logging started Wed Aug  5 15:42:34 2015


Gurobi 5.6.3 (linux64) logging started Wed Aug  5 15:43:31 2015


Gurobi 5.6.3 (linux64) logging started Wed Aug  5 16:47:06 2015


Gurobi 5.6.3 (linux64) logging started Wed Aug  5 16:51:39 2015


Gurobi 5.6.3 (linux64) logging started Wed Aug  5 16:53:15 2015


Gurobi 5.6.3 (linux64) logging started Wed Aug  5 21:55:36 2015


Gurobi 5.6.3 (linux64) logging started Thu Aug  6 12:03:27 2015


Gurobi 5.6.3 (linux64) logging started Thu Aug  6 12:15:43 2015


Gurobi 5.6.3 (linux64) logging started Thu Aug  6 12:29:09 2015


Gurobi 5.6.3 (linux64) logging started Thu Aug  6 14:01:10 2015


Gurobi 5.6.3 (linux64) logging started Thu Aug  6 15:01:44 2015


Gurobi 5.6.3 (linux64) logging started Thu Aug  6 15:02:23 2015


Gurobi 5.6.3 (linux64) logging started Thu Aug  6 15:17:35 2015


Gurobi 5.6.3 (linux64) logging started Thu Aug  6 15:21:13 2015


Gurobi 5.6.3 (linux64) logging started Thu Aug  6 15:39:48 2015


Gurobi 5.6.3 (linux64) logging started Thu Aug  6 15:41:30 2015


Gurobi 5.6.3 (linux64) logging started Thu Aug  6 15:43:43 2015


Gurobi 5.6.3 (linux64) logging started Thu Aug  6 15:45:03 2015


Gurobi 5.6.3 (linux64) logging started Thu Aug  6 16:25:51 2015


Gurobi 5.6.3 (linux64) logging started Thu Aug  6 16:27:08 2015


Gurobi 5.6.3 (linux64) logging started Thu Aug  6 16:28:07 2015


Gurobi 5.6.3 (linux64) logging started Fri Aug  7 13:16:04 2015


Gurobi 5.6.3 (linux64) logging started Fri Aug  7 13:17:40 2015


Gurobi 5.6.3 (linux64) logging started Fri Aug  7 13:18:05 2015


Gurobi 5.6.3 (linux64) logging started Fri Aug  7 13:19:14 2015


Gurobi 5.6.3 (linux64) logging started Fri Aug  7 13:21:03 2015


Gurobi 5.6.3 (linux64) logging started Fri Aug  7 13:21:33 2015


Gurobi 5.6.3 (linux64) logging started Fri Aug  7 13:36:19 2015


Gurobi 5.6.3 (linux64) logging started Fri Aug  7 13:51:52 2015


Gurobi 5.6.3 (linux64) logging started Fri Aug  7 13:52:36 2015


Gurobi 5.6.3 (linux64) logging started Fri Aug  7 13:54:45 2015


Gurobi 5.6.3 (linux64) logging started Fri Aug  7 13:55:07 2015

